This is Ipopt version 3.14.4, running with linear solver MUMPS 5.2.1.

Number of nonzeros in equality constraint Jacobian...:        0
Number of nonzeros in inequality constraint Jacobian.:        0
Number of nonzeros in Lagrangian Hessian.............:        0

Total number of variables............................:    12041
                     variables with only lower bounds:        0
                variables with lower and upper bounds:    12041
                     variables with only upper bounds:        0
Total number of equality constraints.................:        0
Total number of inequality constraints...............:        0
        inequality constraints with only lower bounds:        0
   inequality constraints with lower and upper bounds:        0
        inequality constraints with only upper bounds:        0

iter    objective    inf_pr   inf_du lg(mu)  ||d||  lg(rg) alpha_du alpha_pr  ls
   0  2.3345700e+00 0.00e+00 6.25e-01   0.0 0.00e+00    -  0.00e+00 0.00e+00   0
   1  2.7606081e+00 0.00e+00 2.51e+00  -1.0 9.60e-02    -  9.90e-01 1.25e-01f  4
   2  3.7326345e+00 0.00e+00 3.04e+00  -0.8 1.18e-01    -  1.00e+00 1.00e+00f  1
   3  1.3902925e+01 0.00e+00 1.13e+01  -0.8 2.05e-01    -  7.53e-01 1.00e+00f  1
   4  1.0180182e+01 0.00e+00 7.55e+00  -0.8 1.88e-01    -  1.00e+00 5.00e-01f  2
   5  8.5261173e+00 0.00e+00 7.05e+00  -0.8 1.50e-01    -  1.00e+00 1.25e-01f  4
   6  4.4214658e+00 0.00e+00 4.65e+00  -0.8 5.78e-02    -  1.00e+00 1.00e+00f  1
   7  4.5378116e+00 0.00e+00 5.24e+00  -0.8 7.85e-02    -  1.00e+00 2.50e-01f  3
   8  3.7067723e+00 0.00e+00 1.84e+00  -0.8 2.76e-02    -  1.00e+00 1.00e+00f  1
   9  3.6911637e+00 0.00e+00 8.80e-01  -0.8 2.97e-02    -  1.00e+00 1.25e-01f  4
iter    objective    inf_pr   inf_du lg(mu)  ||d||  lg(rg) alpha_du alpha_pr  ls
  10  3.5642376e+00 0.00e+00 8.72e-01  -1.5 9.67e-03    -  1.00e+00 1.00e+00f  1
  11  3.4741540e+00 0.00e+00 1.35e+00  -1.5 2.46e-02    -  1.00e+00 1.00e+00f  1
  12  3.3866799e+00 0.00e+00 1.09e+00  -1.5 6.64e-02    -  1.00e+00 2.50e-01f  3
  13  3.2529274e+00 0.00e+00 1.25e+00  -1.5 5.98e-02    -  1.00e+00 5.00e-01f  2
  14  3.1844961e+00 0.00e+00 1.02e+00  -1.5 6.04e-02    -  1.00e+00 2.50e-01f  3
  15  3.1356207e+00 0.00e+00 1.14e+00  -1.5 3.19e-02    -  1.00e+00 5.00e-01f  2
  16  3.0814627e+00 0.00e+00 5.62e-01  -1.5 1.50e-02    -  1.00e+00 5.00e-01f  2
  17  3.0489928e+00 0.00e+00 7.05e-01  -1.5 6.61e-03    -  1.00e+00 1.00e+00f  1
  18  3.0221870e+00 0.00e+00 5.23e-01  -1.5 8.90e-03    -  1.00e+00 1.00e+00f  1
  19  3.0155830e+00 0.00e+00 6.68e-01  -1.5 9.94e-03    -  1.00e+00 1.00e+00f  1
iter    objective    inf_pr   inf_du lg(mu)  ||d||  lg(rg) alpha_du alpha_pr  ls
  20  2.9875192e+00 0.00e+00 4.30e-01  -1.5 1.06e-02    -  1.00e+00 1.00e+00f  1
  21  2.9740515e+00 0.00e+00 3.82e-01  -1.5 1.38e-02    -  1.00e+00 5.00e-01f  2
  22  2.9582375e+00 0.00e+00 3.18e-01  -1.5 9.94e-03    -  1.00e+00 1.00e+00f  1
  23  2.9185308e+00 0.00e+00 4.63e-01  -2.2 3.13e-02    -  1.00e+00 1.00e+00f  1
  24  2.8981233e+00 0.00e+00 6.83e-01  -2.2 7.59e-02    -  1.00e+00 2.63e-01f  2
  25  2.8886179e+00 0.00e+00 5.01e-01  -2.2 1.28e-02    -  1.00e+00 2.50e-01f  3
  26  2.8705094e+00 0.00e+00 2.16e-01  -2.2 3.87e-03    -  1.00e+00 1.00e+00f  1
  27  2.8621117e+00 0.00e+00 1.72e-01  -2.2 3.54e-03    -  1.00e+00 1.00e+00f  1
  28  2.8567461e+00 0.00e+00 1.85e-01  -2.2 4.39e-03    -  1.00e+00 1.00e+00f  1
  29  2.8522850e+00 0.00e+00 2.96e-01  -2.2 1.03e-02    -  1.00e+00 5.00e-01f  2
iter    objective    inf_pr   inf_du lg(mu)  ||d||  lg(rg) alpha_du alpha_pr  ls
  30  2.8499086e+00 0.00e+00 2.66e-01  -2.2 9.15e-03    -  1.00e+00 2.50e-01f  3
  31  2.8468514e+00 0.00e+00 1.74e-01  -2.2 1.37e-03    -  1.00e+00 1.00e+00f  1
  32  2.8451021e+00 0.00e+00 1.26e-01  -2.2 1.04e-03    -  1.00e+00 1.00e+00f  1
  33  2.8434297e+00 0.00e+00 1.23e-01  -2.2 1.52e-03    -  1.00e+00 1.00e+00f  1
  34  2.8420687e+00 0.00e+00 1.96e-01  -2.2 7.28e-03    -  1.00e+00 1.00e+00f  1
  35  2.8398295e+00 0.00e+00 1.89e-01  -2.2 3.08e-02    -  1.00e+00 2.50e-01f  3
  36  2.8365558e+00 0.00e+00 3.46e-01  -2.2 7.18e-02    -  1.00e+00 2.50e-01f  3
  37  2.8342190e+00 0.00e+00 2.76e-01  -2.2 1.45e-01    -  1.00e+00 6.25e-02f  5
  38  2.8320388e+00 0.00e+00 2.71e-01  -2.2 1.80e-02    -  1.00e+00 2.50e-01f  3
  39  2.8251380e+00 0.00e+00 2.73e-01  -2.2 2.35e-02    -  1.00e+00 1.00e+00f  1
iter    objective    inf_pr   inf_du lg(mu)  ||d||  lg(rg) alpha_du alpha_pr  ls
  40  2.8228941e+00 0.00e+00 6.07e-01  -2.2 1.47e-01    -  1.00e+00 1.25e-01f  4
  41  2.8201903e+00 0.00e+00 4.57e-01  -2.2 1.20e-01    -  1.00e+00 2.50e-01f  3
  42  2.8179690e+00 0.00e+00 5.26e-01  -2.2 1.64e-01    -  1.00e+00 1.25e-01f  4
  43  2.8025238e+00 0.00e+00 7.37e-01  -2.2 4.09e-01    -  1.00e+00 2.43e-01f  3
  44  2.7887660e+00 0.00e+00 5.41e-01  -2.2 1.00e+00    -  1.00e+00 3.72e-02f  4
  45  2.7811344e+00 0.00e+00 5.72e-01  -2.2 1.33e-01    -  1.00e+00 1.25e-01f  4
  46  2.7608604e+00 0.00e+00 4.37e-01  -2.2 1.16e-01    -  1.00e+00 2.50e-01f  3
  47  2.7466072e+00 0.00e+00 5.75e-01  -2.2 2.74e-01    -  1.00e+00 9.90e-02f  4
  48  2.7368396e+00 0.00e+00 2.98e-01  -2.2 1.16e-01    -  1.00e+00 1.25e-01f  4
  49  2.7308600e+00 0.00e+00 3.28e-01  -2.2 6.76e-02    -  1.00e+00 2.50e-01f  3
iter    objective    inf_pr   inf_du lg(mu)  ||d||  lg(rg) alpha_du alpha_pr  ls
  50  2.8199635e+00 0.00e+00 1.39e+00  -2.2 1.19e-01    -  1.00e+00 1.00e+00w  1
  51  5.6918438e+00 0.00e+00 6.31e+00  -2.2 2.79e-02    -  1.00e+00 1.00e+00w  1
  52  2.7131993e+00 0.00e+00 6.26e-01  -2.2 3.20e-02    -  8.99e-01 1.00e+00f  1
  53  2.6920545e+00 0.00e+00 3.67e-01  -2.2 7.99e-03    -  1.00e+00 2.50e-01f  3
  54  2.6832073e+00 0.00e+00 1.20e-01  -2.2 5.91e-03    -  1.00e+00 1.00e+00f  1
  55  2.6827944e+00 0.00e+00 1.93e-01  -2.2 4.42e-03    -  1.00e+00 5.00e-01f  2
  56  2.6808801e+00 0.00e+00 9.75e-02  -2.2 2.46e-03    -  1.00e+00 1.00e+00f  1
  57  2.6816729e+00 0.00e+00 2.21e-01  -2.2 7.53e-03    -  1.00e+00 5.00e-01f  2
  58  2.6793322e+00 0.00e+00 1.61e-01  -2.2 3.06e-03    -  1.00e+00 1.00e+00f  1
  59  2.6790511e+00 0.00e+00 1.63e-01  -2.2 2.28e-03    -  1.00e+00 5.00e-01f  2
iter    objective    inf_pr   inf_du lg(mu)  ||d||  lg(rg) alpha_du alpha_pr  ls
  60  2.6762265e+00 0.00e+00 1.18e-01  -2.2 7.63e-04    -  1.00e+00 1.00e+00f  1
  61  2.6754806e+00 0.00e+00 1.68e-01  -2.2 1.13e-03    -  1.00e+00 1.00e+00f  1
  62  2.6738590e+00 0.00e+00 1.41e-01  -2.2 1.18e-03    -  1.00e+00 1.00e+00f  1
  63  2.6716747e+00 0.00e+00 1.82e-01  -2.2 2.37e-03    -  1.00e+00 5.00e-01f  2
  64  2.6714115e+00 0.00e+00 1.77e-01  -2.2 2.82e-03    -  1.00e+00 5.00e-01f  2
  65  2.6699446e+00 0.00e+00 1.63e-01  -2.2 2.37e-03    -  1.00e+00 5.00e-01f  2
  66  2.6680937e+00 0.00e+00 1.15e-01  -2.2 2.67e-03    -  1.00e+00 2.50e-01f  3
  67  2.6669925e+00 0.00e+00 1.45e-01  -2.2 1.56e-03    -  1.00e+00 5.00e-01f  2
  68  2.6661753e+00 0.00e+00 7.60e-02  -2.2 2.19e-03    -  1.00e+00 2.50e-01f  3
  69  2.6659584e+00 0.00e+00 1.12e-01  -2.2 3.25e-03    -  1.00e+00 2.50e-01f  3
iter    objective    inf_pr   inf_du lg(mu)  ||d||  lg(rg) alpha_du alpha_pr  ls
  70  2.6654778e+00 0.00e+00 1.01e-01  -2.2 2.66e-03    -  1.00e+00 2.50e-01f  3
  71  2.6650882e+00 0.00e+00 1.47e-01  -2.2 6.54e-03    -  1.00e+00 2.50e-01f  3
  72  2.6642863e+00 0.00e+00 8.86e-02  -2.2 1.58e-02    -  1.00e+00 6.25e-02f  5
  73  2.7215474e+00 0.00e+00 8.32e-01  -2.2 5.38e-03    -  1.00e+00 1.00e+00w  1
  74  2.6693328e+00 0.00e+00 3.47e-01  -2.2 3.31e-03    -  1.00e+00 1.00e+00w  1
  75  2.6669802e+00 0.00e+00 3.17e-01  -2.2 2.22e-03    -  1.00e+00 1.00e+00w  1
  76  2.6637904e+00 0.00e+00 1.23e-01  -2.2 2.21e-03    -  1.00e+00 1.25e-01f  3
  77  2.6624143e+00 0.00e+00 1.10e-01  -2.2 1.59e-03    -  1.00e+00 5.00e-01f  2
  78  2.6606723e+00 0.00e+00 8.78e-02  -2.2 4.38e-03    -  1.00e+00 2.50e-01f  3
  79  2.6602515e+00 0.00e+00 1.15e-01  -2.2 2.30e-03    -  1.00e+00 2.50e-01f  3
iter    objective    inf_pr   inf_du lg(mu)  ||d||  lg(rg) alpha_du alpha_pr  ls
  80  2.6597530e+00 0.00e+00 1.77e-01  -2.2 1.30e-03    -  1.00e+00 1.00e+00f  1
  81  2.6586190e+00 0.00e+00 2.16e-01  -2.2 5.85e-03    -  1.00e+00 2.50e-01f  3
  82  2.6572327e+00 0.00e+00 1.55e-01  -2.2 2.37e-03    -  1.00e+00 2.50e-01f  3
  83  2.6558279e+00 0.00e+00 1.24e-01  -2.2 9.18e-04    -  1.00e+00 5.00e-01f  2
  84  2.6546446e+00 0.00e+00 5.18e-02  -2.2 8.13e-04    -  1.00e+00 1.00e+00f  1
  85  2.6468379e+00 0.00e+00 2.78e-01  -3.3 4.85e-03    -  1.00e+00 1.00e+00f  1
  86  2.6432848e+00 0.00e+00 2.26e-01  -3.3 4.08e-02    -  1.00e+00 1.07e-01f  3
  87  2.6421841e+00 0.00e+00 3.07e-01  -3.3 8.54e-02    -  1.00e+00 1.22e-01f  3
  88  2.6393217e+00 0.00e+00 2.31e-01  -3.3 1.57e-01    -  1.00e+00 3.81e-02f  4
  89  2.6382025e+00 0.00e+00 2.20e-01  -3.3 4.16e-02    -  1.00e+00 6.25e-02f  5
iter    objective    inf_pr   inf_du lg(mu)  ||d||  lg(rg) alpha_du alpha_pr  ls
  90  2.6360410e+00 0.00e+00 4.59e-01  -3.3 7.88e-03    -  1.00e+00 1.00e+00f  1
  91  2.6341298e+00 0.00e+00 2.79e-01  -3.3 2.66e-02    -  1.00e+00 1.61e-01f  3
  92  2.6277233e+00 0.00e+00 3.02e-01  -3.3 6.38e-03    -  1.00e+00 2.50e-01f  3
  93  2.6170005e+00 0.00e+00 2.26e-01  -3.3 8.55e-03    -  1.00e+00 1.00e+00f  1
  94  2.6150830e+00 0.00e+00 1.11e-01  -3.3 7.73e-02    -  1.00e+00 2.27e-02f  5
  95  2.6143055e+00 0.00e+00 1.45e-01  -3.3 5.94e-03    -  1.00e+00 2.50e-01f  3
  96  2.6113800e+00 0.00e+00 1.43e-01  -3.3 2.97e-03    -  1.00e+00 1.00e+00f  1
  97  2.6093144e+00 0.00e+00 1.11e-01  -3.3 3.06e-02    -  1.00e+00 4.96e-02f  5
  98  2.6079442e+00 0.00e+00 1.27e-01  -3.3 1.09e-02    -  1.00e+00 2.50e-01f  3
  99  2.6055759e+00 0.00e+00 2.08e-01  -3.3 1.03e-02    -  1.00e+00 5.00e-01f  2
iter    objective    inf_pr   inf_du lg(mu)  ||d||  lg(rg) alpha_du alpha_pr  ls
 100  2.6010967e+00 0.00e+00 2.01e-01  -3.3 7.14e-02    -  1.00e+00 1.21e-01f  2

Number of Iterations....: 100

                                   (scaled)                 (unscaled)
Objective...............:   2.6010966744755031e+00    2.6010966744755031e+00
Dual infeasibility......:   2.0142967955368540e-01    2.0142967955368540e-01
Constraint violation....:   0.0000000000000000e+00    0.0000000000000000e+00
Variable bound violation:   0.0000000000000000e+00    0.0000000000000000e+00
Complementarity.........:   1.8068784611990755e-03    1.8068784611990755e-03
Overall NLP error.......:   2.0142967955368540e-01    2.0142967955368540e-01


Number of objective function evaluations             = 472
Number of objective gradient evaluations             = 101
Number of equality constraint evaluations            = 0
Number of inequality constraint evaluations          = 0
Number of equality constraint Jacobian evaluations   = 0
Number of inequality constraint Jacobian evaluations = 0
Number of Lagrangian Hessian evaluations             = 0
Total seconds in IPOPT                               = 12.193

EXIT: Maximum Number of Iterations Exceeded.
